c Result of efficient AIG-to-CNF conversion using package CNF
p cnf 329 1124
-2 3 137 0
-2 -34 137 0
-2 -267 137 0
2 -137 0
2 267 -3 34 0
3 4 -22 0
-3 -4 0
-3 22 0
4 -5 9 0
-4 5 0
-4 -9 0
5 326 -6 0
-5 -326 0
-5 6 0
6 327 -7 0
6 -327 -8 0
-6 -327 8 0
-6 327 7 0
7 -294 -328 0
7 -293 328 0
-7 293 328 0
-7 294 -328 0
8 -296 -328 0
8 -295 328 0
-8 295 328 0
-8 296 -328 0
-9 325 10 0
9 -325 0
9 -10 0
-10 324 11 0
10 -324 0
10 -11 0
-11 12 18 20 21 0
11 -21 0
11 -12 0
11 -20 0
11 -18 0
-12 321 322 13 15 0
12 -321 0
12 -15 0
12 -13 0
12 -322 0
-13 313 319 320 14 0
13 -14 0
13 -320 0
13 -313 0
13 -319 0
-14 317 318 323 0
14 -317 0
14 -323 0
14 -318 0
-15 309 310 16 17 0
15 -309 0
15 -17 0
15 -16 0
15 -310 0
-16 314 315 316 0
16 -314 0
16 -316 0
16 -315 0
-17 305 306 311 312 0
17 -312 0
17 -311 0
17 -305 0
17 -306 0
-18 303 307 308 19 0
18 -19 0
18 -308 0
18 -303 0
18 -307 0
-19 301 302 0
19 -301 0
19 -302 0
-20 297 304 0
20 -297 0
20 -304 0
-21 298 299 300 0
21 -298 0
21 -300 0
21 -299 0
22 23 -27 0
-22 -23 0
-22 27 0
23 9 -24 0
-23 -9 0
-23 24 0
24 326 -25 0
-24 -326 0
-24 25 0
25 327 -26 0
25 -296 -327 328 0
-25 327 26 0
-25 -327 -328 0
-25 296 -327 0
26 -295 -328 0
26 -294 328 0
-26 294 328 0
-26 295 -328 0
27 28 -33 0
27 -265 -28 31 0
-27 28 33 0
-27 -28 -31 0
-27 265 -28 0
28 9 -29 0
-28 -9 0
-28 29 0
29 326 -30 0
-29 -326 0
-29 30 0
30 -295 327 328 0
30 -296 327 -328 0
-30 -327 0
-30 296 -328 0
-30 295 328 0
31 9 -32 0
-31 -9 0
-31 32 0
32 -296 326 327 328 0
-32 -328 0
-32 -327 0
-32 296 0
-32 -326 0
33 -267 31 0
33 -266 -31 0
-33 267 31 0
-33 266 -31 0
-34 35 125 126 0
34 -126 0
34 -125 0
34 -35 0
35 -66 110 0
35 -36 110 0
35 -324 110 0
-35 -110 0
-35 324 36 66 0
36 -325 -37 0
36 -325 -57 0
36 -325 -51 0
-36 325 0
-36 37 51 57 0
37 38 -45 0
37 -326 38 0
-37 -38 0
-37 326 45 0
38 -326 39 42 0
-38 326 0
-38 -42 0
-38 -39 0
39 327 -40 0
39 -327 -41 0
-39 -327 41 0
-39 327 40 0
40 -282 -328 0
40 -281 328 0
-40 281 328 0
-40 282 -328 0
41 -284 -328 0
41 -283 328 0
-41 283 328 0
-41 284 -328 0
42 327 -43 0
42 -327 -44 0
-42 -327 44 0
-42 327 43 0
43 -281 -328 0
43 -280 328 0
-43 280 328 0
-43 281 -328 0
44 -283 -328 0
44 -282 328 0
-44 282 328 0
-44 283 -328 0
-45 -327 46 50 0
-45 327 46 49 0
45 -46 0
45 -327 -50 0
45 327 -49 0
46 327 -47 0
46 -327 -48 0
-46 -327 48 0
-46 327 47 0
47 -278 -328 0
47 -277 328 0
-47 277 328 0
-47 278 -328 0
48 -280 -328 0
48 -279 328 0
-48 279 328 0
-48 280 -328 0
49 -277 -328 0
49 -276 328 0
-49 276 328 0
-49 277 -328 0
50 -279 -328 0
50 -278 328 0
-50 278 328 0
-50 279 -328 0
51 326 -52 0
51 -326 -55 0
-51 -326 55 0
-51 326 52 0
52 327 -53 0
52 -327 -54 0
-52 -327 54 0
-52 327 53 0
53 -289 -328 0
53 -288 328 0
-53 288 328 0
-53 289 -328 0
54 -291 -328 0
54 -290 328 0
-54 290 328 0
-54 291 -328 0
55 -327 -26 0
55 327 -56 0
-55 327 56 0
-55 -327 26 0
56 -293 -328 0
56 -292 328 0
-56 292 328 0
-56 293 -328 0
-57 326 58 0
-57 -326 63 0
57 -326 -63 0
57 326 -58 0
-58 -327 59 62 0
-58 327 59 61 0
58 -59 0
58 -327 -62 0
58 327 -61 0
59 -327 -53 0
59 327 -60 0
-59 327 60 0
-59 -327 53 0
60 -287 -328 0
60 -286 328 0
-60 286 328 0
-60 287 -328 0
61 -288 -328 0
61 -287 328 0
-61 287 328 0
-61 288 -328 0
62 -290 -328 0
62 -289 328 0
-62 289 328 0
-62 290 -328 0
-63 -327 64 0
-63 327 54 65 0
63 327 -54 0
63 -327 -64 0
63 327 -65 0
-64 293 294 -328 0
-64 292 293 328 0
64 -293 0
64 -292 328 0
64 -294 -328 0
65 -292 -328 0
65 -291 328 0
-65 291 328 0
-65 292 -328 0
-66 -325 89 0
-66 67 76 89 0
66 -89 0
66 325 -76 0
66 325 -67 0
-67 326 68 74 0
-67 -326 70 74 0
67 -74 0
67 -326 -70 0
67 326 -68 0
-68 -327 69 0
-68 327 48 50 0
68 327 -48 0
68 -327 -69 0
68 327 -50 0
-69 281 282 -328 0
-69 280 281 328 0
69 -281 0
69 -280 328 0
69 -282 -328 0
-70 -327 71 73 0
-70 327 41 71 0
70 -71 0
70 327 -41 0
70 -327 -73 0
71 327 -44 0
71 -327 -72 0
-71 -327 72 0
-71 327 44 0
72 -285 -328 0
72 -284 328 0
-72 284 328 0
-72 285 -328 0
73 -286 -328 0
73 -285 328 0
-73 285 328 0
-73 286 -328 0
74 326 -42 0
74 -326 -75 0
-74 -326 75 0
-74 326 42 0
75 -327 -60 0
75 327 -72 0
-75 327 72 0
-75 -327 60 0
-76 326 83 0
-76 -326 77 80 0
76 -326 -77 0
76 326 -83 0
76 -326 -80 0
77 327 -78 0
77 -327 -79 0
-77 -327 79 0
-77 327 78 0
78 -274 -328 0
78 -273 328 0
-78 273 328 0
-78 274 -328 0
79 -276 -328 0
79 -275 328 0
-79 275 328 0
-79 276 -328 0
80 327 -81 0
80 -327 -82 0
-80 -327 82 0
-80 327 81 0
81 -273 -328 0
81 -272 328 0
-81 272 328 0
-81 273 -328 0
82 -275 -328 0
82 -274 328 0
-82 274 328 0
-82 275 -328 0
-83 327 85 88 0
-83 84 85 88 0
83 -88 0
83 -85 0
83 -327 -84 0
84 -271 -328 0
84 -270 328 0
-84 270 328 0
-84 271 -328 0
85 327 -86 0
85 -327 -87 0
-85 -327 87 0
-85 327 86 0
86 -270 -328 0
86 -269 328 0
-86 269 328 0
-86 270 -328 0
87 -272 -328 0
87 -271 328 0
-87 271 328 0
-87 272 -328 0
88 -268 327 328 0
88 -269 327 -328 0
-88 -327 0
-88 269 -328 0
-88 268 328 0
89 -90 -103 0
89 -90 -101 0
89 325 -90 0
-89 90 0
-89 -325 101 103 0
-90 325 45 91 99 0
90 -325 0
90 -99 0
90 -91 0
90 -45 0
-91 327 92 94 0
-91 -327 93 94 0
91 -94 0
91 -327 -93 0
91 327 -92 0
-92 271 272 -328 0
-92 270 271 328 0
92 -271 0
92 -270 328 0
92 -272 -328 0
-93 273 274 -328 0
-93 272 273 328 0
93 -273 0
93 -272 328 0
93 -274 -328 0
94 -68 -95 0
94 38 -96 0
94 -68 -96 0
94 38 -95 0
-94 -38 68 0
-94 95 96 0
-95 326 77 0
95 -326 0
95 -77 0
-96 327 80 98 0
-96 -327 80 97 0
96 -80 0
96 -327 -97 0
96 327 -98 0
-97 269 270 -328 0
-97 268 269 328 0
97 -269 0
97 -268 328 0
97 -270 -328 0
-98 267 268 -328 0
-98 266 267 328 0
98 -267 0
98 -266 328 0
98 -268 -328 0
99 -327 -47 0
99 327 -100 0
99 -327 -49 0
-99 327 100 0
-99 -327 47 49 0
-100 275 276 -328 0
-100 274 275 328 0
100 -275 0
100 -274 328 0
100 -276 -328 0
101 326 -39 0
101 -326 -102 0
-101 -326 102 0
-101 326 39 0
102 -327 -61 0
102 327 -73 0
-102 327 73 0
-102 -327 61 0
-103 67 104 107 109 0
103 -109 0
103 -67 0
103 -104 0
103 -107 0
-104 105 106 0
104 -105 0
104 -106 0
105 -326 -52 0
105 326 -75 0
-105 326 75 0
-105 -326 52 0
106 326 -70 0
106 -326 -58 0
-106 -326 58 0
-106 326 70 0
107 326 -102 0
107 -326 -108 0
-107 -326 108 0
-107 326 102 0
108 327 -62 0
108 -327 -65 0
-108 -327 65 0
-108 327 62 0
-109 -326 68 0
-109 326 99 0
109 -326 -68 0
109 326 -99 0
-110 324 11 0
-110 11 -111 0
-110 11 -113 0
110 -11 0
110 -324 111 113 0
111 325 -32 0
111 325 -112 0
111 325 -105 0
-111 -325 0
-111 32 105 112 0
-112 24 29 0
112 -24 0
112 -29 0
-113 116 121 0
-113 -114 115 121 0
113 -121 0
113 114 -116 0
113 -115 -116 0
114 -325 32 112 0
-114 325 0
-114 -32 0
-114 -112 0
-115 326 63 0
-115 -326 25 30 0
115 -326 -25 0
115 326 -63 0
115 -326 -30 0
-116 325 5 117 120 0
116 -325 0
116 -120 0
116 -117 0
116 -5 0
-117 106 118 0
117 -106 0
117 -118 0
118 -326 -119 0
118 326 -55 0
-118 326 55 0
-118 -326 119 0
119 -296 327 328 0
-119 296 0
-119 -328 0
-119 -327 0
120 -326 -6 0
120 326 -108 0
-120 326 108 0
-120 -326 6 0
-121 -114 124 0
-121 122 123 124 0
121 -124 0
121 114 -123 0
121 114 -122 0
-122 325 51 0
122 -325 0
122 -51 0
-123 57 115 0
123 -57 0
123 -115 0
124 -325 -5 0
124 325 -107 0
124 -325 -118 0
-124 325 107 0
-124 -325 5 118 0
125 9 -118 0
-125 -9 0
-125 118 0
-126 -10 127 135 0
-126 127 134 135 0
126 -135 0
126 -127 0
126 10 -134 0
127 -324 11 -133 0
127 324 11 -128 0
-127 -11 0
-127 -324 133 0
-127 324 128 0
128 129 -130 0
128 -57 129 0
128 -122 129 0
-128 -129 0
-128 57 122 130 0
129 95 -114 0
129 -326 46 -114 0
-129 114 0
-129 -46 -95 0
-129 326 -95 0
130 -326 -85 0
130 326 -131 132 0
-130 326 -132 0
-130 -326 85 0
-130 326 131 0
-131 266 327 -328 0
-131 265 327 328 0
131 -327 0
131 -265 328 0
131 -266 -328 0
132 268 -327 -328 0
132 267 -327 328 0
-132 327 0
-132 -267 328 0
-132 -268 -328 0
133 325 -101 0
133 -325 -120 0
-133 -325 120 0
-133 325 101 0
-134 325 104 124 0
-134 -325 115 124 0
134 -124 0
134 -325 -115 0
134 325 -104 0
-135 -10 0
-135 -325 133 0
-135 133 136 0
135 10 -133 0
135 325 10 -136 0
-136 115 120 0
136 -115 0
136 -120 0
-137 -279 138 190 0
-137 138 186 190 0
137 -190 0
137 -138 0
137 279 -186 0
-138 -34 144 0
-138 139 144 0
-138 -269 144 0
138 -144 0
138 269 34 -139 0
139 4 -140 0
-139 -4 0
-139 140 0
140 23 -141 0
140 -23 -143 0
-140 -23 143 0
-140 23 141 0
141 -28 -33 0
141 28 -142 0
-141 28 142 0
-141 -28 33 0
142 -269 31 0
142 -268 -31 0
-142 269 31 0
-142 268 -31 0
143 -265 28 31 0
-143 265 0
-143 -31 0
-143 -28 0
-144 -34 152 0
-144 145 152 0
-144 -270 152 0
144 -152 0
144 270 34 -145 0
145 4 -146 0
-145 -4 0
-145 146 0
146 23 -147 0
146 -23 -150 0
-146 -23 150 0
-146 23 147 0
147 28 -148 0
147 -28 -149 0
-147 -28 149 0
-147 28 148 0
148 -270 31 0
148 -269 -31 0
-148 270 31 0
-148 269 -31 0
149 -268 31 0
149 -267 -31 0
-149 268 31 0
-149 267 -31 0
150 28 -151 0
-150 -28 0
-150 151 0
151 -266 31 0
151 -265 -31 0
-151 266 31 0
-151 265 -31 0
-152 -34 157 0
-152 153 157 0
-152 -271 157 0
152 -157 0
152 271 34 -153 0
153 4 -154 0
-153 -4 0
-153 154 0
154 -23 -27 0
154 23 -155 0
-154 23 155 0
-154 -23 27 0
155 -28 -142 0
155 28 -156 0
-155 28 156 0
-155 -28 142 0
156 -271 31 0
156 -270 -31 0
-156 271 31 0
-156 270 -31 0
-157 -34 163 0
-157 158 163 0
-157 -273 163 0
157 -163 0
157 273 34 -158 0
158 4 -159 0
158 -4 -162 0
-158 -4 162 0
-158 4 159 0
159 -23 -141 0
159 23 -160 0
-159 23 160 0
-159 -23 141 0
160 -28 -156 0
160 28 -161 0
-160 28 161 0
-160 -28 156 0
161 -273 31 0
161 -272 -31 0
-161 273 31 0
-161 272 -31 0
162 23 -143 0
-162 -23 0
-162 143 0
-163 -34 170 0
-163 164 170 0
-163 -274 170 0
163 -170 0
163 274 34 -164 0
164 4 -165 0
164 -4 -169 0
-164 -4 169 0
-164 4 165 0
165 -23 -147 0
165 23 -166 0
-165 23 166 0
-165 -23 147 0
166 28 -167 0
166 -28 -168 0
-166 -28 168 0
-166 28 167 0
167 -274 31 0
167 -273 -31 0
-167 274 31 0
-167 273 -31 0
168 -272 31 0
168 -271 -31 0
-168 272 31 0
-168 271 -31 0
169 23 -150 0
-169 -23 0
-169 150 0
-170 -34 175 0
-170 171 175 0
-170 -275 175 0
170 -175 0
170 275 34 -171 0
171 -4 -22 0
171 4 -172 0
-171 4 172 0
-171 -4 22 0
172 -23 -155 0
172 23 -173 0
-172 23 173 0
-172 -23 155 0
173 -28 -161 0
173 28 -174 0
-173 28 174 0
-173 -28 161 0
174 -275 31 0
174 -274 -31 0
-174 275 31 0
-174 274 -31 0
-175 -34 180 0
-175 -277 180 0
-175 176 180 0
175 -180 0
175 277 34 -176 0
176 -4 -140 0
176 4 -177 0
-176 4 177 0
-176 -4 140 0
177 -23 -160 0
177 23 -178 0
-177 23 178 0
-177 -23 160 0
178 -28 -174 0
178 28 -179 0
-178 28 179 0
-178 -28 174 0
179 -277 31 0
179 -276 -31 0
-179 277 31 0
-179 276 -31 0
180 278 34 -181 0
-180 181 0
-180 -34 0
-180 -278 0
181 -4 -146 0
181 4 -182 0
-181 4 182 0
-181 -4 146 0
182 -23 -166 0
182 23 -183 0
-182 23 183 0
-182 -23 166 0
183 28 -184 0
183 -28 -185 0
-183 -28 185 0
-183 28 184 0
184 -278 31 0
184 -277 -31 0
-184 278 31 0
-184 277 -31 0
185 -276 31 0
185 -275 -31 0
-185 276 31 0
-185 275 -31 0
186 4 34 -187 0
186 -4 34 -154 0
-186 -34 0
-186 -4 154 0
-186 4 187 0
187 -23 -173 0
187 23 -188 0
-187 23 188 0
-187 -23 173 0
188 -28 -179 0
188 28 -189 0
-188 28 189 0
-188 -28 179 0
189 -279 31 0
189 -278 -31 0
-189 279 31 0
-189 278 -31 0
-190 191 197 204 210 0
190 -210 0
190 -204 0
190 -191 0
190 -197 0
191 281 126 -192 196 0
-191 -126 0
-191 192 0
-191 -281 0
-191 -196 0
-192 4 125 193 0
-192 -4 125 159 0
192 -125 0
192 4 -193 0
192 -4 -159 0
193 -23 -178 0
193 23 -194 0
-193 23 194 0
-193 -23 178 0
194 -28 -189 0
194 28 -195 0
-194 28 195 0
-194 -28 189 0
195 -281 31 0
195 -280 -31 0
-195 281 31 0
-195 280 -31 0
-196 35 125 0
-196 4 35 -162 0
196 -35 0
196 -4 -125 0
196 -125 162 0
197 282 126 -198 203 0
-197 -126 0
-197 198 0
-197 -282 0
-197 -203 0
-198 4 125 199 0
-198 -4 125 165 0
198 -125 0
198 4 -199 0
198 -4 -165 0
199 -23 -183 0
199 23 -200 0
-199 23 200 0
-199 -23 183 0
200 28 -201 0
200 -28 -202 0
-200 -28 202 0
-200 28 201 0
201 -282 31 0
201 -281 -31 0
-201 282 31 0
-201 281 -31 0
202 -280 31 0
202 -279 -31 0
-202 280 31 0
-202 279 -31 0
-203 35 125 0
-203 4 35 -169 0
203 -35 0
203 -4 -125 0
203 -125 169 0
204 283 126 -205 209 0
-204 -126 0
-204 205 0
-204 -283 0
-204 -209 0
-205 4 125 206 0
-205 -4 125 172 0
205 -125 0
205 4 -206 0
205 -4 -172 0
206 -23 -188 0
206 23 -207 0
-206 23 207 0
-206 -23 188 0
207 -28 -195 0
207 28 -208 0
-207 28 208 0
-207 -28 195 0
208 -283 31 0
208 -282 -31 0
-208 283 31 0
-208 282 -31 0
-209 35 125 0
-209 -3 35 0
209 -35 0
209 3 -125 0
-210 -218 221 0
-210 125 211 221 0
210 -221 0
210 -211 218 0
210 -125 218 0
211 4 -212 0
211 -4 -216 217 0
-211 -4 216 0
-211 4 212 0
-211 -4 -217 0
212 23 -213 0
212 -23 -215 0
-212 -23 215 0
-212 23 213 0
213 -28 -201 0
213 28 -214 0
-213 28 214 0
-213 -28 201 0
214 -284 31 0
214 -283 -31 0
-214 284 31 0
-214 283 -31 0
215 -28 -184 0
215 28 -202 0
-215 28 202 0
-215 -28 184 0
-216 23 -28 167 0
-216 23 28 185 0
216 -23 0
216 -28 -167 0
216 28 -185 0
217 -23 28 168 0
217 -23 -28 148 0
-217 23 0
-217 -28 -148 0
-217 28 -168 0
-218 284 35 126 219 0
218 -284 0
218 -219 0
218 -126 0
218 -35 0
219 -4 -125 0
219 -125 220 0
219 -23 -125 0
-219 125 0
-219 4 23 -220 0
220 28 -149 0
220 -28 -151 0
-220 -28 151 0
-220 28 149 0
-221 222 228 234 240 0
221 -240 0
221 -234 0
221 -222 0
221 -228 0
222 285 126 -223 227 0
-222 -126 0
-222 223 0
-222 -285 0
-222 -227 0
-223 4 125 224 0
-223 -4 125 177 0
223 -125 0
223 4 -224 0
223 -4 -177 0
224 -23 -194 0
224 23 -225 0
-224 23 225 0
-224 -23 194 0
225 -28 -208 0
225 28 -226 0
-225 28 226 0
-225 -28 208 0
226 -285 31 0
226 -284 -31 0
-226 285 31 0
-226 284 -31 0
-227 35 125 0
-227 35 -139 0
227 -35 0
227 -125 139 0
228 286 126 -229 233 0
-228 -126 0
-228 229 0
-228 -286 0
-228 -233 0
-229 4 125 230 0
-229 -4 125 182 0
229 -125 0
229 4 -230 0
229 -4 -182 0
230 -23 -200 0
230 23 -231 0
-230 23 231 0
-230 -23 200 0
231 -28 -214 0
231 28 -232 0
-231 28 232 0
-231 -28 214 0
232 -286 31 0
232 -285 -31 0
-232 286 31 0
-232 285 -31 0
-233 35 125 0
-233 35 -145 0
233 -35 0
233 -125 145 0
234 287 126 -235 239 0
-234 -126 0
-234 235 0
-234 -287 0
-234 -239 0
-235 4 125 236 0
-235 -4 125 187 0
235 -125 0
235 4 -236 0
235 -4 -187 0
236 -23 -207 0
236 23 -237 0
-236 23 237 0
-236 -23 207 0
237 -28 -226 0
237 28 -238 0
-237 28 238 0
-237 -28 226 0
238 -287 31 0
238 -286 -31 0
-238 287 31 0
-238 286 -31 0
-239 35 125 0
-239 35 -153 0
239 -35 0
239 -125 153 0
-240 241 247 253 259 0
240 -259 0
240 -253 0
240 -241 0
240 -247 0
241 289 126 -242 246 0
-241 -126 0
-241 242 0
-241 -289 0
-241 -246 0
-242 4 125 243 0
-242 -4 125 193 0
242 -125 0
242 4 -243 0
242 -4 -193 0
243 -23 -225 0
243 23 -244 0
-243 23 244 0
-243 -23 225 0
244 -28 -238 0
244 28 -245 0
-244 28 245 0
-244 -28 238 0
245 -289 31 0
245 -288 -31 0
-245 289 31 0
-245 288 -31 0
-246 35 125 0
-246 35 -158 0
246 -35 0
246 -125 158 0
247 290 126 -248 252 0
-247 -126 0
-247 248 0
-247 -290 0
-247 -252 0
-248 4 125 249 0
-248 -4 125 199 0
248 -125 0
248 4 -249 0
248 -4 -199 0
249 -23 -231 0
249 23 -250 251 0
-249 23 -251 0
-249 -23 231 0
-249 23 250 0
-250 289 28 -31 0
-250 290 28 31 0
250 -28 0
250 -290 31 0
250 -289 -31 0
251 287 -28 -31 0
251 288 -28 31 0
-251 28 0
-251 -288 31 0
-251 -287 -31 0
-252 35 125 0
-252 35 -164 0
252 -35 0
252 -125 164 0
253 291 126 -254 258 0
-253 -126 0
-253 254 0
-253 -291 0
-253 -258 0
-254 4 125 255 0
-254 -4 125 206 0
254 -125 0
254 4 -255 0
254 -4 -206 0
255 -23 -237 0
255 23 -256 0
-255 23 256 0
-255 -23 237 0
256 -28 -245 0
256 28 -257 0
-256 28 257 0
-256 -28 245 0
257 -291 31 0
257 -290 -31 0
-257 291 31 0
-257 290 -31 0
-258 35 125 0
-258 35 -171 0
258 -35 0
258 -125 171 0
259 293 126 -260 264 0
-259 -126 0
-259 260 0
-259 -293 0
-259 -264 0
-260 4 125 261 0
-260 -4 125 224 0
260 -125 0
260 4 -261 0
260 -4 -224 0
261 -23 -244 0
261 23 -262 0
-261 23 262 0
-261 -23 244 0
262 -28 -257 0
262 28 -263 0
-262 28 263 0
-262 -28 257 0
263 -293 31 0
263 -292 -31 0
-263 293 31 0
-263 292 -31 0
-264 35 125 0
-264 35 -176 0
264 -35 0
264 -125 176 0
-329 0
2 0

